certificates/rado_a5_c8_N12.cnf
c Rad2 upper bound instance: x1 + 5*x2 - x3 = 8, interval [1,12]
p cnf 12 48
1 2 3 0
-1 -2 -3 0
1 3 8 0
-1 -3 -8 0
2 4 0
-2 -4 0
2 3 9 0
-2 -3 -9 0
2 3 5 0
-2 -3 -5 0
3 10 0
-3 -10 0
1 4 0
-1 -4 0
2 4 6 0
-2 -4 -6 0
3 4 11 0
-3 -4 -11 0
1 2 5 0
-1 -2 -5 0
2 5 7 0
-2 -5 -7 0
3 5 12 0
-3 -5 -12 0
1 3 6 0
-1 -3 -6 0
2 6 8 0
-2 -6 -8 0
1 4 7 0
-1 -4 -7 0
2 7 9 0
-2 -7 -9 0
1 5 8 0
-1 -5 -8 0
2 8 10 0
-2 -8 -10 0
1 6 9 0
-1 -6 -9 0
2 9 11 0
-2 -9 -11 0
1 7 10 0
-1 -7 -10 0
2 10 12 0
-2 -10 -12 0
1 8 11 0
-1 -8 -11 0
1 9 12 0
-1 -9 -12 0
