certificates/rado_a5_c8_N12.drat
2 3 0
d 2 1 3 0
-10 -12 0
4 -3 0
-3 -12 0
d -5 -3 -12 0
-12 0
-3 0
10 0
2 0
5 0
-8 0
-4 0
-7 0
-1 0
0
